\ LP format - for model browsing. Use MPS format to capture full model detail.
\ Signature: 0x4c70dcabaca8c9d2
Minimize
  - 0.0535297405586755 y[0,6] - 0.0535297405586755 y[2,3]
   - 0.0554674474648472 y[2,8] - 0.0535297405586755 y[3,0]
   - 0.0535297405586755 y[6,9] - 0.0535297405586755 y[6,149]
   - 0.0554674474648472 y[8,107] - 0.0535297405586755 y[9,9]
   - 0.0535297405586755 y[10,6] - 0.0535297405586755 y[10,11]
   - 0.0535297405586755 y[11,109] - 0.0535297405586755 y[11,6]
   - 0.0535297405586755 y[12,10] - 0.0554674474648472 y[12,8]
   - 0.0535297405586755 y[13,10] - 0.0554674474648472 y[13,8]
   - 0.0535297405586755 y[14,6] - 0.0554674474648472 y[15,8]
   - 0.0535297405586755 y[16,27] - 0.0535297405586755 y[16,68]
   - 0.0535297405586755 y[17,27] - 0.0535297405586755 y[17,68]
   - 0.0535297405586755 y[23,68] - 0.0535297405586755 y[25,68]
   - 0.0554674474648472 y[27,106] - 0.0535297405586755 y[31,31]
   - 0.0535297405586755 y[33,27] - 0.0535297405586755 y[33,68]
   - 0.0535297405586755 y[33,25] - 0.0535297405586755 y[33,106]
   - 0.0535297405586755 y[36,27] - 0.0535297405586755 y[36,22]
   - 0.0535297405586755 y[36,68] - 0.0554674474648472 y[36,149]
   - 0.0535297405586755 y[38,45] - 0.0535297405586755 y[38,43]
   - 0.0535297405586755 y[38,44] - 0.0535297405586755 y[39,39]
   - 0.0535297405586755 y[39,42] - 0.0535297405586755 y[42,42]
   - 0.0535297405586755 y[42,45] - 0.0535297405586755 y[42,43]
   - 0.0535297405586755 y[42,44] - 0.0535297405586755 y[43,43]
   - 0.0535297405586755 y[44,44] - 0.0535297405586755 y[45,45]
   - 0.0535297405586755 y[48,48] - 0.0535297405586755 y[49,63]
   - 0.0535297405586755 y[49,106] - 0.0535297405586755 y[49,56]
   - 0.0535297405586755 y[51,54] - 0.0535297405586755 y[51,56]
   - 0.0535297405586755 y[52,108] - 0.0535297405586755 y[52,104]
   - 0.0535297405586755 y[53,56] - 0.0535297405586755 y[53,63]
   - 0.0535297405586755 y[54,109] - 0.0535297405586755 y[55,61]
   - 0.0535297405586755 y[58,108] - 0.0535297405586755 y[58,104]
   - 0.0535297405586755 y[59,59] - 0.0535297405586755 y[60,108]
   - 0.0535297405586755 y[60,103] - 0.0554674474648472 y[61,106]
   - 0.0535297405586755 y[63,61] - 0.0535297405586755 y[64,64]
   - 0.0535297405586755 y[65,64] - 0.0554674474648472 y[66,104]
   - 0.0535297405586755 y[69,83] - 0.0535297405586755 y[71,70]
   - 0.0535297405586755 y[71,79] - 0.0535297405586755 y[71,84]
   - 0.0535297405586755 y[71,94] - 0.0535297405586755 y[75,76]
   - 0.0535297405586755 y[75,68] - 0.0535297405586755 y[76,75]
   - 0.0535297405586755 y[76,71] - 0.0535297405586755 y[76,77]
   - 0.0535297405586755 y[76,69] - 0.0554674474648472 y[76,149]
   - 0.0535297405586755 y[77,78] - 0.0535297405586755 y[77,66]
   - 0.0535297405586755 y[77,81] - 0.0535297405586755 y[77,67]
   - 0.0535297405586755 y[77,82] - 0.0535297405586755 y[77,80]
   - 0.0535297405586755 y[77,72] - 0.0535297405586755 y[78,108]
   - 0.0535297405586755 y[83,83] - 0.0554674474648472 y[85,105]
   - 0.0554674474648472 y[87,103] - 0.0554674474648472 y[91,149]
   - 0.0554674474648472 y[96,106] - 0.0535297405586755 y[108,103]
   - 0.0535297405586755 y[108,105] - 0.0535297405586755 y[109,109]
   - 0.0535297405586755 y[112,111] - 0.0535297405586755 y[112,140]
   - 0.0535297405586755 y[114,133] - 0.0535297405586755 y[115,140]
   - 0.0535297405586755 y[115,131] - 0.0535297405586755 y[117,118]
   - 0.0535297405586755 y[117,32] - 0.0535297405586755 y[118,118]
   - 0.0535297405586755 y[118,108] - 0.0554674474648472 y[119,106]
   - 0.0535297405586755 y[123,146] - 0.0535297405586755 y[124,139]
   - 0.0535297405586755 y[126,111] - 0.0535297405586755 y[126,104]
   - 0.0535297405586755 y[128,111] - 0.0535297405586755 y[129,139]
   - 0.0535297405586755 y[130,108] - 0.0535297405586755 y[130,103]
   - 0.0535297405586755 y[132,108] - 0.0535297405586755 y[138,112]
   - 0.0535297405586755 y[139,103] - 0.0535297405586755 y[139,143]
   - 0.0535297405586755 y[139,142] - 0.0535297405586755 y[140,139]
   - 0.0535297405586755 y[141,108] - 0.0535297405586755 y[141,143]
   - 0.0535297405586755 y[142,103] - 0.0535297405586755 y[143,103]
   - 0.0554674474648472 y[145,149] - 0.0535297405586755 y[147,108]
   - 0.0554674474648472 y[147,149] - 0.0554674474648472 y[149,107]
   - 0.0535297405586755 y[151,6] - 0.0535297405586755 y[152,147]
   - 0.0535297405586755 y[152,7] - 0.0535297405586755 y[154,149]
   - 0.0535297405586755 y[157,6] - 0.0535297405586755 y[166,169]
   - 0.0535297405586755 y[166,170] - 0.0535297405586755 y[167,173]
   - 0.0535297405586755 y[171,173] - 0.0535297405586755 y[174,178]
   - 0.0554674474648472 y[174,106] - 0.0535297405586755 y[176,149]
   - 0.0535297405586755 y[176,178] - 0.0554674474648472 y[176,145]
   - 0.0535297405586755 y[180,182] - 0.0535297405586755 y[181,182]
   - 0.0535297405586755 y[184,107] - 0.0535297405586755 y[188,149]
   - 0.0554674474648472 y[188,145] - 0.0535297405586755 y[200,199]
   + 7.963093447713603 Constant
Subject To
 (1)microservice-belonging[0]: = 1
 (1)microservice-belonging[2]: = 1
 (1)microservice-belonging[3]: = 1
 (1)microservice-belonging[6]: = 1
 (1)microservice-belonging[7]: = 1
 (1)microservice-belonging[8]: = 1
 (1)microservice-belonging[9]: = 1
 (1)microservice-belonging[10]: = 1
 (1)microservice-belonging[11]: = 1
 (1)microservice-belonging[12]: = 1
 (1)microservice-belonging[13]: = 1
 (1)microservice-belonging[14]: = 1
 (1)microservice-belonging[15]: = 1
 (1)microservice-belonging[16]: = 1
 (1)microservice-belonging[17]: = 1
 (1)microservice-belonging[22]: = 1
 (1)microservice-belonging[23]: = 1
 (1)microservice-belonging[25]: = 1
 (1)microservice-belonging[27]: = 1
 (1)microservice-belonging[31]: = 1
 (1)microservice-belonging[32]: = 1
 (1)microservice-belonging[33]: = 1
 (1)microservice-belonging[36]: = 1
 (1)microservice-belonging[38]: = 1
 (1)microservice-belonging[39]: = 1
 (1)microservice-belonging[42]: = 1
 (1)microservice-belonging[43]: = 1
 (1)microservice-belonging[44]: = 1
 (1)microservice-belonging[45]: = 1
 (1)microservice-belonging[48]: = 1
 (1)microservice-belonging[49]: = 1
 (1)microservice-belonging[51]: = 1
 (1)microservice-belonging[52]: = 1
 (1)microservice-belonging[53]: = 1
 (1)microservice-belonging[54]: = 1
 (1)microservice-belonging[55]: = 1
 (1)microservice-belonging[56]: = 1
 (1)microservice-belonging[58]: = 1
 (1)microservice-belonging[59]: = 1
 (1)microservice-belonging[60]: = 1
 (1)microservice-belonging[61]: = 1
 (1)microservice-belonging[63]: = 1
 (1)microservice-belonging[64]: = 1
 (1)microservice-belonging[65]: = 1
 (1)microservice-belonging[66]: = 1
 (1)microservice-belonging[67]: = 1
 (1)microservice-belonging[68]: = 1
 (1)microservice-belonging[69]: = 1
 (1)microservice-belonging[70]: = 1
 (1)microservice-belonging[71]: = 1
 (1)microservice-belonging[72]: = 1
 (1)microservice-belonging[75]: = 1
 (1)microservice-belonging[76]: = 1
 (1)microservice-belonging[77]: = 1
 (1)microservice-belonging[78]: = 1
 (1)microservice-belonging[79]: = 1
 (1)microservice-belonging[80]: = 1
 (1)microservice-belonging[81]: = 1
 (1)microservice-belonging[82]: = 1
 (1)microservice-belonging[83]: = 1
 (1)microservice-belonging[84]: = 1
 (1)microservice-belonging[85]: = 1
 (1)microservice-belonging[87]: = 1
 (1)microservice-belonging[91]: = 1
 (1)microservice-belonging[94]: = 1
 (1)microservice-belonging[96]: = 1
 (1)microservice-belonging[103]: = 1
 (1)microservice-belonging[104]: = 1
 (1)microservice-belonging[105]: = 1
 (1)microservice-belonging[106]: = 1
 (1)microservice-belonging[107]: = 1
 (1)microservice-belonging[108]: = 1
 (1)microservice-belonging[109]: = 1
 (1)microservice-belonging[111]: = 1
 (1)microservice-belonging[112]: = 1
 (1)microservice-belonging[114]: = 1
 (1)microservice-belonging[115]: = 1
 (1)microservice-belonging[117]: = 1
 (1)microservice-belonging[118]: = 1
 (1)microservice-belonging[119]: = 1
 (1)microservice-belonging[123]: = 1
 (1)microservice-belonging[124]: = 1
 (1)microservice-belonging[126]: = 1
 (1)microservice-belonging[128]: = 1
 (1)microservice-belonging[129]: = 1
 (1)microservice-belonging[130]: = 1
 (1)microservice-belonging[131]: = 1
 (1)microservice-belonging[132]: = 1
 (1)microservice-belonging[133]: = 1
 (1)microservice-belonging[138]: = 1
 (1)microservice-belonging[139]: = 1
 (1)microservice-belonging[140]: = 1
 (1)microservice-belonging[141]: = 1
 (1)microservice-belonging[142]: = 1
 (1)microservice-belonging[143]: = 1
 (1)microservice-belonging[145]: = 1
 (1)microservice-belonging[146]: = 1
 (1)microservice-belonging[147]: = 1
 (1)microservice-belonging[149]: = 1
 (1)microservice-belonging[151]: = 1
 (1)microservice-belonging[152]: = 1
 (1)microservice-belonging[154]: = 1
 (1)microservice-belonging[157]: = 1
 (1)microservice-belonging[166]: = 1
 (1)microservice-belonging[167]: = 1
 (1)microservice-belonging[169]: = 1
 (1)microservice-belonging[170]: = 1
 (1)microservice-belonging[171]: = 1
 (1)microservice-belonging[173]: = 1
 (1)microservice-belonging[174]: = 1
 (1)microservice-belonging[176]: = 1
 (1)microservice-belonging[178]: = 1
 (1)microservice-belonging[180]: = 1
 (1)microservice-belonging[181]: = 1
 (1)microservice-belonging[182]: = 1
 (1)microservice-belonging[184]: = 1
 (1)microservice-belonging[188]: = 1
 (1)microservice-belonging[199]: = 1
 (1)microservice-belonging[200]: = 1
 (6)bonding-y-to-z[0,6]: y[0,6] = 0
 (6)bonding-y-to-z[2,3]: y[2,3] = 0
 (6)bonding-y-to-z[2,8]: y[2,8] = 0
 (6)bonding-y-to-z[3,0]: y[3,0] = 0
 (6)bonding-y-to-z[6,9]: y[6,9] = 0
 (6)bonding-y-to-z[6,149]: y[6,149] = 0
 (6)bonding-y-to-z[8,107]: y[8,107] = 0
 (6)bonding-y-to-z[9,9]: y[9,9] = 0
 (6)bonding-y-to-z[10,6]: y[10,6] = 0
 (6)bonding-y-to-z[10,11]: y[10,11] = 0
 (6)bonding-y-to-z[11,109]: y[11,109] = 0
 (6)bonding-y-to-z[11,6]: y[11,6] = 0
 (6)bonding-y-to-z[12,10]: y[12,10] = 0
 (6)bonding-y-to-z[12,8]: y[12,8] = 0
 (6)bonding-y-to-z[13,10]: y[13,10] = 0
 (6)bonding-y-to-z[13,8]: y[13,8] = 0
 (6)bonding-y-to-z[14,6]: y[14,6] = 0
 (6)bonding-y-to-z[15,8]: y[15,8] = 0
 (6)bonding-y-to-z[16,27]: y[16,27] = 0
 (6)bonding-y-to-z[16,68]: y[16,68] = 0
 (6)bonding-y-to-z[17,27]: y[17,27] = 0
 (6)bonding-y-to-z[17,68]: y[17,68] = 0
 (6)bonding-y-to-z[23,68]: y[23,68] = 0
 (6)bonding-y-to-z[25,68]: y[25,68] = 0
 (6)bonding-y-to-z[27,106]: y[27,106] = 0
 (6)bonding-y-to-z[31,31]: y[31,31] = 0
 (6)bonding-y-to-z[33,27]: y[33,27] = 0
 (6)bonding-y-to-z[33,68]: y[33,68] = 0
 (6)bonding-y-to-z[33,25]: y[33,25] = 0
 (6)bonding-y-to-z[33,106]: y[33,106] = 0
 (6)bonding-y-to-z[36,27]: y[36,27] = 0
 (6)bonding-y-to-z[36,22]: y[36,22] = 0
 (6)bonding-y-to-z[36,68]: y[36,68] = 0
 (6)bonding-y-to-z[36,149]: y[36,149] = 0
 (6)bonding-y-to-z[38,45]: y[38,45] = 0
 (6)bonding-y-to-z[38,43]: y[38,43] = 0
 (6)bonding-y-to-z[38,44]: y[38,44] = 0
 (6)bonding-y-to-z[39,39]: y[39,39] = 0
 (6)bonding-y-to-z[39,42]: y[39,42] = 0
 (6)bonding-y-to-z[42,42]: y[42,42] = 0
 (6)bonding-y-to-z[42,45]: y[42,45] = 0
 (6)bonding-y-to-z[42,43]: y[42,43] = 0
 (6)bonding-y-to-z[42,44]: y[42,44] = 0
 (6)bonding-y-to-z[43,43]: y[43,43] = 0
 (6)bonding-y-to-z[44,44]: y[44,44] = 0
 (6)bonding-y-to-z[45,45]: y[45,45] = 0
 (6)bonding-y-to-z[48,48]: y[48,48] = 0
 (6)bonding-y-to-z[49,63]: y[49,63] = 0
 (6)bonding-y-to-z[49,106]: y[49,106] = 0
 (6)bonding-y-to-z[49,56]: y[49,56] = 0
 (6)bonding-y-to-z[51,54]: y[51,54] = 0
 (6)bonding-y-to-z[51,56]: y[51,56] = 0
 (6)bonding-y-to-z[52,108]: y[52,108] = 0
 (6)bonding-y-to-z[52,104]: y[52,104] = 0
 (6)bonding-y-to-z[53,56]: y[53,56] = 0
 (6)bonding-y-to-z[53,63]: y[53,63] = 0
 (6)bonding-y-to-z[54,109]: y[54,109] = 0
 (6)bonding-y-to-z[55,61]: y[55,61] = 0
 (6)bonding-y-to-z[58,108]: y[58,108] = 0
 (6)bonding-y-to-z[58,104]: y[58,104] = 0
 (6)bonding-y-to-z[59,59]: y[59,59] = 0
 (6)bonding-y-to-z[60,108]: y[60,108] = 0
 (6)bonding-y-to-z[60,103]: y[60,103] = 0
 (6)bonding-y-to-z[61,106]: y[61,106] = 0
 (6)bonding-y-to-z[63,61]: y[63,61] = 0
 (6)bonding-y-to-z[64,64]: y[64,64] = 0
 (6)bonding-y-to-z[65,64]: y[65,64] = 0
 (6)bonding-y-to-z[66,104]: y[66,104] = 0
 (6)bonding-y-to-z[69,83]: y[69,83] = 0
 (6)bonding-y-to-z[71,70]: y[71,70] = 0
 (6)bonding-y-to-z[71,79]: y[71,79] = 0
 (6)bonding-y-to-z[71,84]: y[71,84] = 0
 (6)bonding-y-to-z[71,94]: y[71,94] = 0
 (6)bonding-y-to-z[75,76]: y[75,76] = 0
 (6)bonding-y-to-z[75,68]: y[75,68] = 0
 (6)bonding-y-to-z[76,75]: y[76,75] = 0
 (6)bonding-y-to-z[76,71]: y[76,71] = 0
 (6)bonding-y-to-z[76,77]: y[76,77] = 0
 (6)bonding-y-to-z[76,69]: y[76,69] = 0
 (6)bonding-y-to-z[76,149]: y[76,149] = 0
 (6)bonding-y-to-z[77,78]: y[77,78] = 0
 (6)bonding-y-to-z[77,66]: y[77,66] = 0
 (6)bonding-y-to-z[77,81]: y[77,81] = 0
 (6)bonding-y-to-z[77,67]: y[77,67] = 0
 (6)bonding-y-to-z[77,82]: y[77,82] = 0
 (6)bonding-y-to-z[77,80]: y[77,80] = 0
 (6)bonding-y-to-z[77,72]: y[77,72] = 0
 (6)bonding-y-to-z[78,108]: y[78,108] = 0
 (6)bonding-y-to-z[83,83]: y[83,83] = 0
 (6)bonding-y-to-z[85,105]: y[85,105] = 0
 (6)bonding-y-to-z[87,103]: y[87,103] = 0
 (6)bonding-y-to-z[91,149]: y[91,149] = 0
 (6)bonding-y-to-z[96,106]: y[96,106] = 0
 (6)bonding-y-to-z[108,103]: y[108,103] = 0
 (6)bonding-y-to-z[108,105]: y[108,105] = 0
 (6)bonding-y-to-z[109,109]: y[109,109] = 0
 (6)bonding-y-to-z[112,111]: y[112,111] = 0
 (6)bonding-y-to-z[112,140]: y[112,140] = 0
 (6)bonding-y-to-z[114,133]: y[114,133] = 0
 (6)bonding-y-to-z[115,140]: y[115,140] = 0
 (6)bonding-y-to-z[115,131]: y[115,131] = 0
 (6)bonding-y-to-z[117,118]: y[117,118] = 0
 (6)bonding-y-to-z[117,32]: y[117,32] = 0
 (6)bonding-y-to-z[118,118]: y[118,118] = 0
 (6)bonding-y-to-z[118,108]: y[118,108] = 0
 (6)bonding-y-to-z[119,106]: y[119,106] = 0
 (6)bonding-y-to-z[123,146]: y[123,146] = 0
 (6)bonding-y-to-z[124,139]: y[124,139] = 0
 (6)bonding-y-to-z[126,111]: y[126,111] = 0
 (6)bonding-y-to-z[126,104]: y[126,104] = 0
 (6)bonding-y-to-z[128,111]: y[128,111] = 0
 (6)bonding-y-to-z[129,139]: y[129,139] = 0
 (6)bonding-y-to-z[130,108]: y[130,108] = 0
 (6)bonding-y-to-z[130,103]: y[130,103] = 0
 (6)bonding-y-to-z[132,108]: y[132,108] = 0
 (6)bonding-y-to-z[138,112]: y[138,112] = 0
 (6)bonding-y-to-z[139,103]: y[139,103] = 0
 (6)bonding-y-to-z[139,143]: y[139,143] = 0
 (6)bonding-y-to-z[139,142]: y[139,142] = 0
 (6)bonding-y-to-z[140,139]: y[140,139] = 0
 (6)bonding-y-to-z[141,108]: y[141,108] = 0
 (6)bonding-y-to-z[141,143]: y[141,143] = 0
 (6)bonding-y-to-z[142,103]: y[142,103] = 0
 (6)bonding-y-to-z[143,103]: y[143,103] = 0
 (6)bonding-y-to-z[145,149]: y[145,149] = 0
 (6)bonding-y-to-z[147,108]: y[147,108] = 0
 (6)bonding-y-to-z[147,149]: y[147,149] = 0
 (6)bonding-y-to-z[149,107]: y[149,107] = 0
 (6)bonding-y-to-z[151,6]: y[151,6] = 0
 (6)bonding-y-to-z[152,147]: y[152,147] = 0
 (6)bonding-y-to-z[152,7]: y[152,7] = 0
 (6)bonding-y-to-z[154,149]: y[154,149] = 0
 (6)bonding-y-to-z[157,6]: y[157,6] = 0
 (6)bonding-y-to-z[166,169]: y[166,169] = 0
 (6)bonding-y-to-z[166,170]: y[166,170] = 0
 (6)bonding-y-to-z[167,173]: y[167,173] = 0
 (6)bonding-y-to-z[171,173]: y[171,173] = 0
 (6)bonding-y-to-z[174,178]: y[174,178] = 0
 (6)bonding-y-to-z[174,106]: y[174,106] = 0
 (6)bonding-y-to-z[176,149]: y[176,149] = 0
 (6)bonding-y-to-z[176,178]: y[176,178] = 0
 (6)bonding-y-to-z[176,145]: y[176,145] = 0
 (6)bonding-y-to-z[180,182]: y[180,182] = 0
 (6)bonding-y-to-z[181,182]: y[181,182] = 0
 (6)bonding-y-to-z[184,107]: y[184,107] = 0
 (6)bonding-y-to-z[188,149]: y[188,149] = 0
 (6)bonding-y-to-z[188,145]: y[188,145] = 0
 (6)bonding-y-to-z[200,199]: y[200,199] = 0
 (8)bonding-y-to-communities[0,6]: y[0,6] = 1
 (8)bonding-y-to-communities[2,3]: y[2,3] = 1
 (8)bonding-y-to-communities[2,8]: y[2,8] = 1
 (8)bonding-y-to-communities[3,0]: y[3,0] = 1
 (8)bonding-y-to-communities[6,9]: y[6,9] = 1
 (8)bonding-y-to-communities[9,9]: y[9,9] = 1
 (8)bonding-y-to-communities[10,6]: y[10,6] = 1
 (8)bonding-y-to-communities[10,11]: y[10,11] = 1
 (8)bonding-y-to-communities[11,109]: y[11,109] = 1
 (8)bonding-y-to-communities[11,6]: y[11,6] = 1
 (8)bonding-y-to-communities[12,10]: y[12,10] = 1
 (8)bonding-y-to-communities[12,8]: y[12,8] = 1
 (8)bonding-y-to-communities[13,10]: y[13,10] = 1
 (8)bonding-y-to-communities[13,8]: y[13,8] = 1
 (8)bonding-y-to-communities[14,6]: y[14,6] = 1
 (8)bonding-y-to-communities[15,8]: y[15,8] = 1
 (8)bonding-y-to-communities[16,27]: y[16,27] = 1
 (8)bonding-y-to-communities[16,68]: y[16,68] = 1
 (8)bonding-y-to-communities[17,27]: y[17,27] = 1
 (8)bonding-y-to-communities[17,68]: y[17,68] = 1
 (8)bonding-y-to-communities[23,68]: y[23,68] = 1
 (8)bonding-y-to-communities[25,68]: y[25,68] = 1
 (8)bonding-y-to-communities[31,31]: y[31,31] = 1
 (8)bonding-y-to-communities[33,27]: y[33,27] = 1
 (8)bonding-y-to-communities[33,68]: y[33,68] = 1
 (8)bonding-y-to-communities[33,25]: y[33,25] = 1
 (8)bonding-y-to-communities[36,27]: y[36,27] = 1
 (8)bonding-y-to-communities[36,22]: y[36,22] = 1
 (8)bonding-y-to-communities[36,68]: y[36,68] = 1
 (8)bonding-y-to-communities[38,45]: y[38,45] = 1
 (8)bonding-y-to-communities[38,43]: y[38,43] = 1
 (8)bonding-y-to-communities[38,44]: y[38,44] = 1
 (8)bonding-y-to-communities[39,39]: y[39,39] = 1
 (8)bonding-y-to-communities[39,42]: y[39,42] = 1
 (8)bonding-y-to-communities[42,42]: y[42,42] = 1
 (8)bonding-y-to-communities[42,45]: y[42,45] = 1
 (8)bonding-y-to-communities[42,43]: y[42,43] = 1
 (8)bonding-y-to-communities[42,44]: y[42,44] = 1
 (8)bonding-y-to-communities[43,43]: y[43,43] = 1
 (8)bonding-y-to-communities[44,44]: y[44,44] = 1
 (8)bonding-y-to-communities[45,45]: y[45,45] = 1
 (8)bonding-y-to-communities[48,48]: y[48,48] = 1
 (8)bonding-y-to-communities[49,63]: y[49,63] = 1
 (8)bonding-y-to-communities[49,106]: y[49,106] = 1
 (8)bonding-y-to-communities[49,56]: y[49,56] = 1
 (8)bonding-y-to-communities[51,54]: y[51,54] = 1
 (8)bonding-y-to-communities[51,56]: y[51,56] = 1
 (8)bonding-y-to-communities[52,104]: y[52,104] = 1
 (8)bonding-y-to-communities[53,56]: y[53,56] = 1
 (8)bonding-y-to-communities[53,63]: y[53,63] = 1
 (8)bonding-y-to-communities[55,61]: y[55,61] = 1
 (8)bonding-y-to-communities[58,104]: y[58,104] = 1
 (8)bonding-y-to-communities[59,59]: y[59,59] = 1
 (8)bonding-y-to-communities[60,108]: y[60,108] = 1
 (8)bonding-y-to-communities[60,103]: y[60,103] = 1
 (8)bonding-y-to-communities[61,106]: y[61,106] = 1
 (8)bonding-y-to-communities[63,61]: y[63,61] = 1
 (8)bonding-y-to-communities[64,64]: y[64,64] = 1
 (8)bonding-y-to-communities[65,64]: y[65,64] = 1
 (8)bonding-y-to-communities[66,104]: y[66,104] = 1
 (8)bonding-y-to-communities[69,83]: y[69,83] = 1
 (8)bonding-y-to-communities[71,70]: y[71,70] = 1
 (8)bonding-y-to-communities[71,79]: y[71,79] = 1
 (8)bonding-y-to-communities[71,84]: y[71,84] = 1
 (8)bonding-y-to-communities[71,94]: y[71,94] = 1
 (8)bonding-y-to-communities[75,76]: y[75,76] = 1
 (8)bonding-y-to-communities[76,75]: y[76,75] = 1
 (8)bonding-y-to-communities[76,71]: y[76,71] = 1
 (8)bonding-y-to-communities[76,69]: y[76,69] = 1
 (8)bonding-y-to-communities[77,78]: y[77,78] = 1
 (8)bonding-y-to-communities[77,66]: y[77,66] = 1
 (8)bonding-y-to-communities[77,81]: y[77,81] = 1
 (8)bonding-y-to-communities[77,67]: y[77,67] = 1
 (8)bonding-y-to-communities[77,82]: y[77,82] = 1
 (8)bonding-y-to-communities[77,80]: y[77,80] = 1
 (8)bonding-y-to-communities[77,72]: y[77,72] = 1
 (8)bonding-y-to-communities[83,83]: y[83,83] = 1
 (8)bonding-y-to-communities[85,105]: y[85,105] = 1
 (8)bonding-y-to-communities[87,103]: y[87,103] = 1
 (8)bonding-y-to-communities[91,149]: y[91,149] = 1
 (8)bonding-y-to-communities[96,106]: y[96,106] = 1
 (8)bonding-y-to-communities[108,103]: y[108,103] = 1
 (8)bonding-y-to-communities[108,105]: y[108,105] = 1
 (8)bonding-y-to-communities[109,109]: y[109,109] = 1
 (8)bonding-y-to-communities[112,111]: y[112,111] = 1
 (8)bonding-y-to-communities[112,140]: y[112,140] = 1
 (8)bonding-y-to-communities[114,133]: y[114,133] = 1
 (8)bonding-y-to-communities[115,140]: y[115,140] = 1
 (8)bonding-y-to-communities[115,131]: y[115,131] = 1
 (8)bonding-y-to-communities[117,118]: y[117,118] = 1
 (8)bonding-y-to-communities[117,32]: y[117,32] = 1
 (8)bonding-y-to-communities[118,118]: y[118,118] = 1
 (8)bonding-y-to-communities[118,108]: y[118,108] = 1
 (8)bonding-y-to-communities[119,106]: y[119,106] = 1
 (8)bonding-y-to-communities[123,146]: y[123,146] = 1
 (8)bonding-y-to-communities[124,139]: y[124,139] = 1
 (8)bonding-y-to-communities[126,111]: y[126,111] = 1
 (8)bonding-y-to-communities[128,111]: y[128,111] = 1
 (8)bonding-y-to-communities[129,139]: y[129,139] = 1
 (8)bonding-y-to-communities[130,108]: y[130,108] = 1
 (8)bonding-y-to-communities[130,103]: y[130,103] = 1
 (8)bonding-y-to-communities[132,108]: y[132,108] = 1
 (8)bonding-y-to-communities[138,112]: y[138,112] = 1
 (8)bonding-y-to-communities[139,103]: y[139,103] = 1
 (8)bonding-y-to-communities[139,143]: y[139,143] = 1
 (8)bonding-y-to-communities[139,142]: y[139,142] = 1
 (8)bonding-y-to-communities[141,108]: y[141,108] = 1
 (8)bonding-y-to-communities[141,143]: y[141,143] = 1
 (8)bonding-y-to-communities[142,103]: y[142,103] = 1
 (8)bonding-y-to-communities[143,103]: y[143,103] = 1
 (8)bonding-y-to-communities[145,149]: y[145,149] = 1
 (8)bonding-y-to-communities[147,149]: y[147,149] = 1
 (8)bonding-y-to-communities[149,107]: y[149,107] = 1
 (8)bonding-y-to-communities[151,6]: y[151,6] = 1
 (8)bonding-y-to-communities[152,147]: y[152,147] = 1
 (8)bonding-y-to-communities[152,7]: y[152,7] = 1
 (8)bonding-y-to-communities[154,149]: y[154,149] = 1
 (8)bonding-y-to-communities[157,6]: y[157,6] = 1
 (8)bonding-y-to-communities[166,169]: y[166,169] = 1
 (8)bonding-y-to-communities[166,170]: y[166,170] = 1
 (8)bonding-y-to-communities[167,173]: y[167,173] = 1
 (8)bonding-y-to-communities[171,173]: y[171,173] = 1
 (8)bonding-y-to-communities[174,178]: y[174,178] = 1
 (8)bonding-y-to-communities[174,106]: y[174,106] = 1
 (8)bonding-y-to-communities[176,149]: y[176,149] = 1
 (8)bonding-y-to-communities[176,145]: y[176,145] = 1
 (8)bonding-y-to-communities[180,182]: y[180,182] = 1
 (8)bonding-y-to-communities[181,182]: y[181,182] = 1
 (8)bonding-y-to-communities[184,107]: y[184,107] = 1
 (8)bonding-y-to-communities[188,149]: y[188,149] = 1
 (8)bonding-y-to-communities[188,145]: y[188,145] = 1
 (8)bonding-y-to-communities[200,199]: y[200,199] = 1
Bounds
 Constant = 1
Binaries
 y[0,6] y[2,3] y[2,8] y[3,0] y[6,9] y[6,149] y[8,107] y[9,9] y[10,6]
 y[10,11] y[11,109] y[11,6] y[12,10] y[12,8] y[13,10] y[13,8] y[14,6]
 y[15,8] y[16,27] y[16,68] y[17,27] y[17,68] y[23,68] y[25,68] y[27,106]
 y[31,31] y[33,27] y[33,68] y[33,25] y[33,106] y[36,27] y[36,22] y[36,68]
 y[36,149] y[38,45] y[38,43] y[38,44] y[39,39] y[39,42] y[42,42] y[42,45]
 y[42,43] y[42,44] y[43,43] y[44,44] y[45,45] y[48,48] y[49,63] y[49,106]
 y[49,56] y[51,54] y[51,56] y[52,108] y[52,104] y[53,56] y[53,63] y[54,109]
 y[55,61] y[58,108] y[58,104] y[59,59] y[60,108] y[60,103] y[61,106]
 y[63,61] y[64,64] y[65,64] y[66,104] y[69,83] y[71,70] y[71,79] y[71,84]
 y[71,94] y[75,76] y[75,68] y[76,75] y[76,71] y[76,77] y[76,69] y[76,149]
 y[77,78] y[77,66] y[77,81] y[77,67] y[77,82] y[77,80] y[77,72] y[78,108]
 y[83,83] y[85,105] y[87,103] y[91,149] y[96,106] y[108,103] y[108,105]
 y[109,109] y[112,111] y[112,140] y[114,133] y[115,140] y[115,131]
 y[117,118] y[117,32] y[118,118] y[118,108] y[119,106] y[123,146]
 y[124,139] y[126,111] y[126,104] y[128,111] y[129,139] y[130,108]
 y[130,103] y[132,108] y[138,112] y[139,103] y[139,143] y[139,142]
 y[140,139] y[141,108] y[141,143] y[142,103] y[143,103] y[145,149]
 y[147,108] y[147,149] y[149,107] y[151,6] y[152,147] y[152,7] y[154,149]
 y[157,6] y[166,169] y[166,170] y[167,173] y[171,173] y[174,178] y[174,106]
 y[176,149] y[176,178] y[176,145] y[180,182] y[181,182] y[184,107]
 y[188,149] y[188,145] y[200,199]
End
